9700.98,62.7,77.77
9702.06,62.69,77.77
10324.46,58.91,73.08
11321.31,53.72,66.64
9720.25,62.57,77.62
9670.62,62.89,78.02
9625.44,63.19,78.38
10898.35,55.81,69.23
9331.45,65.18,80.85
10502.99,57.91,71.84
9893.6,61.48,76.26
9974.32,60.98,75.64
9614.78,63.26,78.47
9868.51,61.63,76.45
11174.24,54.43,67.52
10757.78,56.54,70.13
10137.17,60.0,74.43
9969.33,61.01,75.68
9454.1,64.33,79.8
10008.46,60.77,75.38
